NAME: Tnm112
COMMENT: Recalculated optimal tour for Tnm112, using concorde got a tour of length 1585157.0
TYPE: TOUR
DIMENSION: 112
TOUR_SECTION:
1
89
4
7
10
13
92
95
98
101
104
16
19
22
25
28
31
34
37
40
43
46
49
52
55
58
61
64
67
70
73
76
79
82
85
2
90
5
8
93
96
11
14
17
20
23
26
29
32
35
38
41
44
47
99
102
105
108
111
112
110
107
109
106
103
100
97
94
50
53
56
59
62
65
68
71
74
77
91
88
80
83
86
3
6
9
12
15
18
21
24
27
30
33
36
39
42
45
48
51
54
57
60
63
66
69
72
75
78
81
84
87 
-1
EOF
